DIMACS_lns/graph-1000-576.col
p edge 1000 1824
e 1 753
e 1 782
e 1 884
e 1 720
e 1 811
e 1 88
e 1 808
e 2 478
e 2 662
e 2 516
e 2 195
e 2 268
e 2 415
e 2 423
e 3 112
e 3 729
e 3 627
e 3 705
e 5 476
e 5 507
e 5 980
e 5 716
e 5 565
e 7 540
e 7 373
e 7 376
e 7 158
e 7 396
e 8 698
e 8 265
e 8 577
e 8 824
e 9 618
e 9 916
e 9 498
e 9 651
e 9 403
e 9 211
e 10 234
e 10 595
e 10 812
e 11 489
e 11 506
e 11 89
e 11 51
e 11 712
e 12 496
e 12 501
e 12 407
e 13 814
e 13 406
e 13 605
e 13 620
e 15 242
e 15 208
e 15 863
e 15 251
e 16 485
e 16 647
e 16 879
e 16 77
e 16 584
e 16 537
e 16 784
e 16 835
e 17 407
e 17 53
e 17 329
e 17 246
e 17 885
e 17 951
e 17 436
e 17 783
e 17 47
e 19 722
e 19 312
e 19 338
e 19 32
e 20 65
e 20 918
e 20 230
e 20 900
e 20 577
e 20 449
e 20 182
e 20 992
e 20 263
e 21 805
e 21 567
e 21 708
e 21 833
e 22 319
e 22 148
e 22 997
e 22 701
e 22 106
e 22 156
e 25 280
e 25 87
e 25 123
e 25 395
e 25 800
e 26 615
e 26 354
e 26 66
e 26 603
e 26 985
e 26 837
e 27 949
e 27 853
e 27 471
e 27 424
e 27 688
e 27 396
e 28 60
e 28 834
e 28 324
e 29 887
e 29 195
e 29 118
e 29 763
e 29 341
e 29 932
e 29 714
e 29 728
e 30 782
e 30 100
e 30 327
e 30 786
e 31 605
e 31 504
e 31 328
e 32 280
e 32 621
e 32 486
e 33 160
e 33 684
e 33 723
e 35 470
e 35 371
e 35 102
e 36 611
e 36 82
e 36 865
e 37 715
e 37 133
e 37 501
e 39 410
e 39 871
e 39 644
e 39 961
e 39 702
e 39 687
e 41 680
e 41 257
e 41 317
e 41 853
e 44 621
e 44 798
e 44 406
e 44 321
e 44 488
e 44 403
e 46 749
e 46 668
e 46 188
e 46 943
e 46 588
e 46 476
e 47 786
e 47 390
e 47 569
e 47 756
e 48 894
e 48 765
e 48 395
e 48 966
e 48 185
e 49 852
e 49 461
e 49 72
e 51 232
e 51 684
e 51 693
e 52 568
e 52 237
e 52 254
e 52 87
e 52 475
e 52 762
e 53 472
e 53 369
e 53 404
e 53 819
e 53 781
e 53 355
e 53 789
e 53 433
e 56 657
e 56 500
e 56 675
e 56 976
e 57 838
e 57 803
e 57 79
e 57 856
e 59 169
e 59 768
e 59 442
e 60 145
e 60 579
e 62 935
e 62 224
e 62 737
e 62 605
e 62 183
e 63 454
e 63 494
e 63 605
e 65 170
e 65 490
e 65 448
e 65 990
e 65 177
e 65 484
e 66 580
e 66 612
e 66 406
e 67 609
e 67 122
e 67 833
e 67 280
e 68 855
e 68 674
e 68 445
e 68 220
e 68 551
e 69 887
e 69 638
e 69 230
e 70 453
e 70 665
e 70 851
e 70 730
e 71 765
e 71 789
e 71 167
e 71 962
e 71 872
e 72 203
e 72 644
e 72 748
e 72 756
e 72 633
e 72 969
e 72 589
e 77 408
e 77 82
e 77 225
e 77 638
e 78 191
e 78 976
e 78 208
e 78 288
e 78 818
e 78 429
e 79 881
e 79 623
e 79 503
e 79 808
e 80 946
e 80 760
e 80 368
e 80 412
e 80 974
e 80 133
e 81 657
e 81 806
e 81 217
e 82 488
e 82 209
e 82 800
e 82 377
e 82 169
e 82 946
e 83 226
e 83 215
e 83 656
e 84 490
e 84 541
e 84 837
e 84 423
e 84 887
e 85 361
e 85 918
e 85 456
e 85 685
e 85 270
e 86 688
e 86 138
e 86 740
e 86 530
e 86 943
e 87 140
e 87 134
e 87 193
e 88 912
e 88 418
e 88 561
e 88 192
e 88 244
e 89 676
e 89 808
e 89 722
e 91 381
e 91 479
e 91 489
e 91 331
e 91 818
e 91 751
e 92 473
e 92 762
e 92 818
e 93 270
e 93 487
e 93 355
e 94 643
e 94 304
e 94 351
e 96 384
e 96 787
e 96 838
e 96 711
e 96 113
e 98 992
e 98 828
e 98 796
e 98 961
e 98 565
e 100 896
e 100 956
e 100 987
e 100 211
e 100 563
e 100 832
e 101 162
e 101 186
e 101 993
e 101 879
e 101 537
e 101 506
e 102 892
e 102 966
e 102 932
e 102 653
e 102 362
e 103 786
e 103 153
e 103 135
e 105 190
e 105 241
e 105 863
e 105 913
e 106 422
e 106 225
e 106 502
e 106 446
e 106 540
e 107 705
e 107 985
e 107 636
e 107 881
e 109 121
e 109 388
e 109 983
e 112 680
e 112 444
e 112 878
e 112 274
e 113 321
e 113 118
e 113 949
e 114 569
e 114 720
e 114 507
e 114 856
e 115 465
e 115 834
e 115 948
e 117 680
e 117 529
e 117 515
e 117 762
e 117 420
e 117 483
e 117 216
e 118 691
e 118 184
e 119 740
e 119 191
e 119 706
e 119 866
e 120 382
e 120 825
e 120 128
e 120 832
e 121 668
e 121 403
e 121 324
e 121 702
e 121 791
e 121 425
e 121 966
e 122 237
e 122 255
e 123 611
e 123 974
e 126 165
e 126 424
e 126 603
e 127 404
e 127 837
e 127 218
e 127 234
e 127 179
e 127 649
e 128 421
e 128 489
e 128 151
e 131 194
e 131 333
e 131 456
e 131 390
e 131 241
e 131 993
e 132 498
e 132 689
e 132 637
e 132 867
e 133 325
e 133 297
e 133 479
e 134 460
e 134 912
e 134 609
e 134 599
e 135 386
e 135 216
e 135 737
e 135 936
e 135 183
e 137 805
e 137 591
e 137 373
e 137 236
e 137 993
e 137 547
e 138 364
e 138 380
e 140 144
e 140 478
e 140 655
e 143 365
e 143 965
e 143 354
e 144 516
e 144 1000
e 145 629
e 145 913
e 145 702
e 146 913
e 146 824
e 146 762
e 146 698
e 146 561
e 147 313
e 147 550
e 147 850
e 148 727
e 148 656
e 148 272
e 148 520
e 148 478
e 148 846
e 149 615
e 149 823
e 149 535
e 151 825
e 151 333
e 151 226
e 151 508
e 151 383
e 153 243
e 153 714
e 153 576
e 153 364
e 153 600
e 156 627
e 156 888
e 156 711
e 157 701
e 157 869
e 157 360
e 158 900
e 158 482
e 158 458
e 160 313
e 160 398
e 161 675
e 161 552
e 161 372
e 161 642
e 161 943
e 162 432
e 162 442
e 162 651
e 162 232
e 163 836
e 163 658
e 163 915
e 163 732
e 163 927
e 163 645
e 164 565
e 164 307
e 164 645
e 164 336
e 164 579
e 164 899
e 165 839
e 165 385
e 165 758
e 165 425
e 165 786
e 166 305
e 166 270
e 166 992
e 166 772
e 166 653
e 167 727
e 167 362
e 167 236
e 168 238
e 168 541
e 168 335
e 169 459
e 169 789
e 169 320
e 170 892
e 170 599
e 170 197
e 171 867
e 171 600
e 171 752
e 172 298
e 172 564
e 172 856
e 177 647
e 177 462
e 177 445
e 177 513
e 177 895
e 177 915
e 179 760
e 179 275
e 179 751
e 179 227
e 180 931
e 180 618
e 180 229
e 180 886
e 181 226
e 181 222
e 181 336
e 181 224
e 181 782
e 181 405
e 181 988
e 181 607
e 181 341
e 182 544
e 182 281
e 182 302
e 182 822
e 182 566
e 183 784
e 183 709
e 183 321
e 183 879
e 184 293
e 184 482
e 184 968
e 184 892
e 184 799
e 184 698
e 184 682
e 185 325
e 185 855
e 186 725
e 186 891
e 187 444
e 187 914
e 187 493
e 187 302
e 188 459
e 188 540
e 188 472
e 188 394
e 188 949
e 188 866
e 188 460
e 190 255
e 190 998
e 190 824
e 190 846
e 191 913
e 191 268
e 191 656
e 191 853
e 191 234
e 192 935
e 192 580
e 193 651
e 193 215
e 193 672
e 194 842
e 194 429
e 194 665
e 195 836
e 196 297
e 196 543
e 196 879
e 196 851
e 197 692
e 197 846
e 197 958
e 198 838
e 198 374
e 198 847
e 198 461
e 198 629
e 198 985
e 201 649
e 201 838
e 201 969
e 201 408
e 201 542
e 201 317
e 202 913
e 202 255
e 202 894
e 202 794
e 203 888
e 203 585
e 207 749
e 207 825
e 207 637
e 208 876
e 208 853
e 208 819
e 208 349
e 208 948
e 208 1000
e 209 559
e 209 772
e 209 434
e 209 590
e 210 953
e 210 292
e 210 273
e 211 668
e 211 555
e 211 932
e 211 851
e 213 251
e 213 795
e 213 585
e 214 454
e 214 612
e 214 574
e 215 752
e 215 804
e 215 459
e 215 853
e 215 799
e 216 864
e 216 661
e 216 231
e 216 538
e 216 595
e 216 462
e 217 590
e 217 237
e 218 824
e 218 982
e 218 523
e 220 737
e 220 768
e 220 997
e 220 958
e 222 743
e 222 458
e 222 442
e 222 693
e 222 309
e 224 806
e 225 685
e 225 894
e 225 338
e 225 924
e 225 822
e 226 490
e 226 270
e 226 349
e 226 788
e 227 755
e 227 615
e 228 389
e 228 726
e 228 274
e 228 576
e 228 360
e 229 612
e 229 644
e 229 780
e 229 250
e 229 821
e 230 739
e 230 758
e 230 511
e 230 510
e 230 384
e 230 884
e 231 755
e 231 673
e 231 511
e 232 689
e 234 674
e 234 340
e 234 599
e 234 436
e 234 843
e 234 952
e 234 757
e 235 740
e 235 835
e 235 924
e 235 550
e 235 416
e 235 824
e 236 434
e 236 430
e 237 834
e 237 947
e 237 897
e 238 494
e 238 953
e 238 748
e 241 753
e 241 535
e 242 911
e 242 333
e 242 383
e 242 368
e 242 658
e 243 656
e 243 396
e 244 264
e 244 301
e 244 568
e 244 510
e 245 515
e 245 368
e 245 935
e 245 660
e 245 305
e 246 385
e 246 317
e 246 749
e 247 650
e 247 328
e 247 746
e 249 909
e 249 471
e 249 562
e 250 873
e 250 672
e 250 499
e 250 802
e 251 898
e 251 478
e 251 470
e 254 390
e 254 471
e 254 867
e 255 591
e 256 386
e 256 516
e 256 885
e 256 775
e 257 775
e 257 430
e 258 952
e 258 802
e 258 405
e 258 348
e 258 815
e 258 355
e 258 730
e 259 796
e 259 536
e 259 542
e 259 351
e 260 713
e 260 588
e 260 611
e 262 816
e 262 421
e 262 746
e 262 690
e 263 795
e 263 562
e 263 445
e 263 453
e 264 300
e 264 679
e 264 630
e 264 602
e 264 312
e 265 763
e 265 629
e 265 586
e 265 811
e 267 589
e 267 414
e 267 893
e 267 627
e 267 441
e 268 882
e 268 915
e 268 454
e 268 911
e 268 433
e 268 355
e 270 825
e 270 867
e 270 554
e 270 479
e 271 728
e 271 786
e 271 750
e 272 703
e 272 570
e 272 781
e 272 730
e 273 986
e 273 298
e 273 595
e 273 652
e 273 325
e 274 554
e 274 864
e 274 490
e 275 540
e 275 559
e 275 734
e 275 430
e 277 816
e 277 866
e 277 904
e 277 420
e 278 630
e 278 846
e 278 785
e 279 816
e 279 815
e 279 762
e 279 491
e 279 570
e 280 338
e 280 750
e 280 566
e 281 915
e 281 565
e 282 935
e 282 777
e 282 718
e 282 322
e 283 563
e 283 953
e 283 384
e 283 974
e 283 952
e 284 810
e 284 297
e 284 587
e 284 958
e 284 633
e 288 315
e 288 916
e 288 530
e 291 748
e 291 448
e 291 812
e 292 803
e 292 475
e 293 757
e 293 498
e 293 485
e 293 445
e 293 418
e 297 305
e 297 957
e 298 602
e 298 851
e 298 743
e 298 999
e 300 448
e 300 749
e 300 806
e 300 630
e 300 931
e 301 504
e 301 525
e 302 527
e 304 574
e 304 352
e 304 899
e 305 923
e 305 880
e 305 374
e 307 884
e 307 689
e 307 722
e 307 731
e 307 429
e 307 752
e 307 458
e 307 741
e 309 456
e 309 616
e 309 551
e 309 319
e 311 913
e 311 903
e 311 897
e 311 433
e 311 499
e 312 314
e 312 964
e 312 873
e 313 769
e 313 990
e 313 492
e 313 420
e 313 952
e 314 587
e 314 654
e 314 385
e 314 702
e 314 518
e 315 450
e 315 993
e 315 360
e 315 758
e 317 783
e 317 775
e 317 990
e 317 483
e 317 843
e 317 361
e 317 666
e 318 711
e 318 765
e 318 342
e 319 871
e 319 834
e 320 997
e 320 334
e 321 613
e 321 894
e 321 541
e 321 359
e 321 659
e 322 830
e 322 560
e 322 661
e 322 708
e 322 420
e 322 550
e 322 442
e 324 392
e 324 581
e 324 514
e 324 412
e 325 754
e 325 655
e 327 697
e 327 702
e 327 449
e 328 373
e 328 823
e 329 620
e 329 675
e 330 423
e 330 814
e 330 714
e 331 562
e 331 520
e 331 406
e 331 508
e 331 498
e 332 441
e 332 515
e 332 619
e 332 395
e 333 434
e 334 405
e 334 602
e 334 755
e 334 482
e 334 451
e 335 537
e 335 544
e 336 563
e 336 416
e 338 451
e 338 442
e 340 527
e 340 465
e 340 697
e 341 520
e 341 880
e 341 643
e 342 642
e 342 680
e 342 562
e 342 852
e 344 821
e 344 510
e 344 509
e 347 665
e 347 421
e 347 560
e 347 740
e 348 473
e 348 936
e 348 993
e 348 590
e 349 658
e 350 770
e 350 898
e 350 875
e 351 933
e 351 507
e 351 352
e 351 776
e 352 689
e 352 456
e 354 597
e 354 918
e 354 839
e 355 757
e 355 533
e 355 572
e 355 392
e 355 879
e 358 424
e 358 693
e 358 589
e 359 872
e 359 644
e 359 830
e 361 897
e 361 876
e 362 915
e 362 815
e 362 398
e 362 993
e 362 951
e 362 383
e 363 410
e 363 962
e 363 974
e 364 754
e 365 800
e 365 678
e 365 735
e 366 570
e 366 898
e 366 961
e 367 433
e 367 830
e 367 660
e 367 735
e 368 841
e 368 838
e 369 638
e 369 784
e 371 797
e 371 772
e 371 836
e 371 939
e 371 554
e 371 573
e 372 509
e 372 489
e 373 888
e 373 488
e 373 756
e 373 657
e 374 565
e 374 782
e 374 900
e 374 714
e 374 568
e 375 432
e 375 854
e 375 420
e 376 380
e 376 914
e 376 951
e 377 529
e 377 936
e 377 575
e 377 717
e 380 717
e 380 816
e 381 382
e 381 535
e 381 702
e 381 643
e 382 456
e 383 879
e 383 993
e 383 771
e 383 727
e 383 592
e 383 526
e 384 508
e 385 418
e 385 712
e 386 517
e 386 653
e 386 658
e 386 777
e 386 944
e 388 808
e 388 519
e 389 798
e 389 920
e 389 482
e 389 416
e 389 679
e 390 602
e 392 782
e 394 746
e 394 707
e 394 450
e 394 593
e 395 850
e 395 628
e 396 592
e 396 486
e 396 550
e 397 751
e 397 836
e 397 452
e 397 703
e 398 763
e 398 881
e 403 867
e 403 677
e 403 503
e 403 579
e 404 785
e 404 731
e 404 850
e 405 459
e 405 607
e 405 980
e 406 674
e 406 527
e 406 972
e 406 956
e 407 798
e 407 854
e 407 788
e 407 649
e 408 488
e 410 490
e 410 658
e 410 886
e 410 909
e 412 834
e 412 422
e 412 825
e 414 645
e 414 502
e 414 434
e 415 491
e 415 424
e 420 868
e 420 806
e 420 893
e 420 585
e 420 757
e 420 526
e 421 616
e 421 701
e 421 871
e 422 644
e 422 700
e 423 839
e 423 726
e 424 895
e 424 553
e 424 552
e 424 481
e 425 603
e 425 783
e 425 555
e 425 886
e 429 456
e 429 701
e 429 904
e 430 620
e 430 459
e 430 433
e 431 708
e 431 553
e 431 589
e 431 667
e 431 619
e 432 997
e 432 718
e 433 876
e 433 597
e 433 451
e 434 493
e 434 498
e 435 854
e 435 684
e 435 811
e 436 658
e 436 732
e 437 899
e 437 636
e 437 775
e 437 509
e 441 926
e 441 816
e 442 985
e 442 674
e 442 878
e 444 767
e 445 878
e 445 685
e 445 945
e 446 805
e 446 492
e 446 893
e 448 682
e 448 458
e 449 797
e 450 951
e 450 637
e 450 717
e 451 594
e 451 715
e 452 656
e 452 624
e 453 552
e 453 893
e 454 702
e 454 842
e 454 477
e 456 803
e 456 680
e 457 605
e 457 909
e 457 903
e 458 690
e 458 476
e 458 856
e 459 722
e 459 964
e 459 830
e 460 503
e 461 496
e 461 949
e 462 678
e 463 851
e 463 478
e 463 484
e 465 878
e 465 874
e 469 520
e 469 958
e 469 999
e 470 691
e 470 943
e 470 711
e 471 533
e 471 882
e 471 529
e 471 734
e 472 494
e 472 581
e 472 743
e 472 518
e 472 727
e 473 624
e 473 805
e 474 662
e 474 804
e 474 957
e 474 592
e 474 585
e 474 742
e 474 924
e 475 798
e 476 700
e 476 879
e 476 754
e 477 703
e 477 885
e 478 690
e 478 798
e 478 786
e 478 884
e 479 517
e 481 847
e 481 603
e 481 697
e 482 967
e 482 517
e 482 600
e 483 540
e 483 765
e 484 787
e 484 564
e 485 678
e 485 863
e 486 788
e 486 644
e 486 679
e 487 714
e 487 609
e 488 810
e 488 732
e 488 706
e 488 514
e 488 664
e 488 824
e 489 935
e 489 774
e 490 508
e 490 567
e 491 900
e 491 684
e 491 664
e 491 864
e 492 760
e 492 966
e 493 933
e 493 529
e 494 562
e 494 590
e 494 880
e 496 808
e 496 546
e 496 776
e 496 507
e 498 500
e 498 812
e 499 788
e 500 805
e 500 731
e 500 884
e 501 666
e 501 957
e 501 770
e 501 713
e 502 527
e 502 851
e 503 524
e 504 774
e 506 838
e 506 628
e 506 819
e 508 666
e 508 536
e 508 871
e 509 564
e 510 823
e 511 588
e 511 524
e 513 544
e 513 785
e 514 722
e 514 605
e 515 791
e 515 810
e 518 956
e 518 880
e 519 887
e 519 559
e 519 676
e 519 975
e 520 964
e 523 999
e 523 806
e 523 769
e 523 678
e 524 889
e 524 909
e 524 745
e 524 927
e 524 627
e 525 682
e 525 830
e 525 832
e 526 553
e 526 920
e 527 659
e 527 846
e 529 692
e 529 888
e 529 608
e 530 711
e 530 561
e 533 649
e 533 866
e 534 980
e 534 830
e 534 650
e 535 703
e 535 664
e 536 948
e 536 854
e 537 900
e 537 744
e 537 675
e 537 643
e 538 794
e 538 616
e 538 774
e 538 837
e 540 638
e 540 841
e 540 741
e 541 600
e 541 947
e 542 984
e 543 623
e 543 666
e 544 563
e 546 612
e 546 677
e 546 804
e 547 889
e 547 577
e 547 854
e 550 886
e 550 716
e 551 608
e 551 888
e 551 978
e 551 656
e 552 839
e 552 676
e 553 912
e 553 559
e 553 691
e 553 863
e 553 705
e 553 659
e 554 982
e 555 863
e 555 620
e 555 758
e 555 740
e 555 767
e 559 735
e 559 902
e 559 716
e 560 980
e 560 654
e 561 753
e 561 616
e 561 563
e 562 667
e 562 792
e 562 726
e 563 674
e 564 899
e 564 743
e 565 698
e 565 871
e 566 747
e 566 846
e 567 923
e 567 768
e 568 746
e 568 637
e 569 757
e 569 978
e 570 913
e 570 887
e 572 927
e 572 658
e 572 847
e 572 872
e 573 750
e 573 943
e 573 707
e 573 873
e 574 693
e 575 879
e 575 868
e 575 969
e 576 783
e 576 758
e 577 758
e 580 675
e 581 818
e 584 837
e 584 638
e 585 820
e 585 758
e 586 879
e 586 613
e 587 644
e 587 618
e 587 936
e 588 867
e 588 750
e 590 661
e 591 662
e 591 815
e 591 888
e 593 978
e 593 985
e 594 956
e 594 674
e 597 736
e 597 672
e 597 729
e 599 673
e 600 615
e 605 777
e 607 701
e 607 966
e 607 839
e 608 899
e 608 706
e 609 961
e 611 778
e 611 651
e 611 769
e 612 882
e 613 918
e 616 714
e 618 814
e 618 630
e 618 926
e 618 852
e 619 708
e 620 771
e 620 922
e 620 629
e 620 633
e 620 978
e 621 664
e 621 796
e 623 832
e 624 856
e 624 985
e 624 822
e 627 965
e 628 832
e 629 659
e 630 737
e 630 823
e 633 842
e 636 746
e 636 828
e 636 784
e 636 739
e 636 718
e 636 993
e 637 831
e 637 762
e 637 942
e 637 655
e 638 797
e 638 916
e 638 808
e 642 806
e 643 687
e 643 853
e 643 865
e 644 800
e 647 734
e 649 880
e 649 789
e 649 805
e 650 943
e 652 972
e 652 687
e 652 741
e 653 993
e 654 894
e 654 770
e 655 756
e 655 746
e 656 675
e 658 824
e 658 689
e 658 676
e 658 944
e 658 922
e 658 772
e 659 891
e 659 743
e 659 912
e 660 923
e 661 828
e 661 975
e 661 752
e 662 924
e 664 744
e 666 853
e 667 985
e 667 742
e 668 945
e 668 838
e 672 892
e 673 871
e 676 814
e 677 774
e 677 679
e 677 968
e 678 820
e 678 946
e 679 902
e 679 881
e 680 855
e 680 684
e 682 998
e 682 791
e 684 717
e 684 714
e 685 951
e 687 965
e 688 973
e 689 708
e 690 806
e 690 916
e 692 729
e 693 972
e 693 792
e 700 825
e 701 999
e 702 874
e 703 752
e 707 874
e 707 839
e 708 998
e 709 967
e 709 993
e 709 974
e 709 968
e 711 865
e 712 966
e 712 837
e 713 882
e 714 788
e 715 942
e 716 847
e 717 812
e 717 945
e 720 896
e 722 942
e 723 944
e 723 838
e 725 757
e 725 831
e 726 983
e 727 869
e 728 911
e 729 781
e 729 936
e 729 891
e 729 732
e 730 898
e 730 771
e 730 737
e 731 763
e 732 922
e 734 745
e 734 760
e 736 935
e 736 897
e 737 772
e 737 886
e 739 909
e 739 875
e 740 783
e 741 868
e 742 878
e 742 832
e 743 758
e 743 964
e 744 939
e 745 976
e 745 984
e 747 798
e 747 927
e 748 767
e 748 968
e 750 892
e 750 889
e 751 895
e 752 839
e 753 898
e 753 824
e 754 988
e 755 880
e 760 810
e 760 900
e 763 806
e 767 806
e 767 892
e 767 799
e 770 988
e 770 980
e 772 855
e 772 872
e 776 975
e 777 965
e 778 822
e 778 912
e 778 982
e 780 820
e 780 796
e 787 953
e 791 980
e 792 798
e 794 983
e 795 898
e 795 968
e 796 969
e 797 969
e 798 869
e 800 911
e 802 1000
e 804 871
e 805 869
e 810 997
e 811 939
e 811 832
e 812 931
e 814 939
e 814 986
e 814 978
e 816 838
e 816 920
e 816 854
e 818 927
e 820 976
e 820 932
e 820 931
e 821 828
e 830 987
e 830 902
e 831 957
e 831 958
e 833 869
e 834 896
e 834 904
e 835 978
e 835 879
e 837 987
e 838 974
e 841 853
e 843 983
e 846 889
e 846 964
e 850 964
e 852 987
e 854 933
e 864 866
e 866 990
e 869 986
e 874 885
e 875 885
e 876 972
e 878 933
e 882 931
e 882 953
e 884 999
e 888 926
e 893 913
e 893 966
e 895 957
e 896 984
e 902 986
e 903 983
e 914 947
e 918 952
e 918 931
e 923 976
e 926 939
e 927 967
e 936 973
e 947 997
e 953 968
e 958 983
e 962 974
e 972 999
e 973 997
e 975 992
