txt_Ins/graph-1000-576.txt
n 1000
e 0 752
e 0 781
e 0 883
e 0 719
e 0 810
e 0 87
e 0 807
e 1 477
e 1 661
e 1 515
e 1 194
e 1 267
e 1 414
e 1 422
e 2 111
e 2 728
e 2 626
e 2 704
e 4 475
e 4 506
e 4 979
e 4 715
e 4 564
e 6 539
e 6 372
e 6 375
e 6 157
e 6 395
e 7 697
e 7 264
e 7 576
e 7 823
e 8 617
e 8 915
e 8 497
e 8 650
e 8 402
e 8 210
e 9 233
e 9 594
e 9 811
e 10 488
e 10 505
e 10 88
e 10 50
e 10 711
e 11 495
e 11 500
e 11 406
e 12 813
e 12 405
e 12 604
e 12 619
e 14 241
e 14 207
e 14 862
e 14 250
e 15 484
e 15 646
e 15 878
e 15 76
e 15 583
e 15 536
e 15 783
e 15 834
e 16 406
e 16 52
e 16 328
e 16 245
e 16 884
e 16 950
e 16 435
e 16 782
e 16 46
e 18 721
e 18 311
e 18 337
e 18 31
e 19 64
e 19 917
e 19 229
e 19 899
e 19 576
e 19 448
e 19 181
e 19 991
e 19 262
e 20 804
e 20 566
e 20 707
e 20 832
e 21 318
e 21 147
e 21 996
e 21 700
e 21 105
e 21 155
e 24 279
e 24 86
e 24 122
e 24 394
e 24 799
e 25 614
e 25 353
e 25 65
e 25 602
e 25 984
e 25 836
e 26 948
e 26 852
e 26 470
e 26 423
e 26 687
e 26 395
e 27 59
e 27 833
e 27 323
e 28 886
e 28 194
e 28 117
e 28 762
e 28 340
e 28 931
e 28 713
e 28 727
e 29 781
e 29 99
e 29 326
e 29 785
e 30 604
e 30 503
e 30 327
e 31 279
e 31 620
e 31 485
e 32 159
e 32 683
e 32 722
e 34 469
e 34 370
e 34 101
e 35 610
e 35 81
e 35 864
e 36 714
e 36 132
e 36 500
e 38 409
e 38 870
e 38 643
e 38 960
e 38 701
e 38 686
e 40 679
e 40 256
e 40 316
e 40 852
e 43 620
e 43 797
e 43 405
e 43 320
e 43 487
e 43 402
e 45 748
e 45 667
e 45 187
e 45 942
e 45 587
e 45 475
e 46 785
e 46 389
e 46 568
e 46 755
e 47 893
e 47 764
e 47 394
e 47 965
e 47 184
e 48 851
e 48 460
e 48 71
e 50 231
e 50 683
e 50 692
e 51 567
e 51 236
e 51 253
e 51 86
e 51 474
e 51 761
e 52 471
e 52 368
e 52 403
e 52 818
e 52 780
e 52 354
e 52 788
e 52 432
e 55 656
e 55 499
e 55 674
e 55 975
e 56 837
e 56 802
e 56 78
e 56 855
e 58 168
e 58 767
e 58 441
e 59 144
e 59 578
e 61 934
e 61 223
e 61 736
e 61 604
e 61 182
e 62 453
e 62 493
e 62 604
e 64 169
e 64 489
e 64 447
e 64 989
e 64 176
e 64 483
e 65 579
e 65 611
e 65 405
e 66 608
e 66 121
e 66 832
e 66 279
e 67 854
e 67 673
e 67 444
e 67 219
e 67 550
e 68 886
e 68 637
e 68 229
e 69 452
e 69 664
e 69 850
e 69 729
e 70 764
e 70 788
e 70 166
e 70 961
e 70 871
e 71 202
e 71 643
e 71 747
e 71 755
e 71 632
e 71 968
e 71 588
e 76 407
e 76 81
e 76 224
e 76 637
e 77 190
e 77 975
e 77 207
e 77 287
e 77 817
e 77 428
e 78 880
e 78 622
e 78 502
e 78 807
e 79 945
e 79 759
e 79 367
e 79 411
e 79 973
e 79 132
e 80 656
e 80 805
e 80 216
e 81 487
e 81 208
e 81 799
e 81 376
e 81 168
e 81 945
e 82 225
e 82 214
e 82 655
e 83 489
e 83 540
e 83 836
e 83 422
e 83 886
e 84 360
e 84 917
e 84 455
e 84 684
e 84 269
e 85 687
e 85 137
e 85 739
e 85 529
e 85 942
e 86 139
e 86 133
e 86 192
e 87 911
e 87 417
e 87 560
e 87 191
e 87 243
e 88 675
e 88 807
e 88 721
e 90 380
e 90 478
e 90 488
e 90 330
e 90 817
e 90 750
e 91 472
e 91 761
e 91 817
e 92 269
e 92 486
e 92 354
e 93 642
e 93 303
e 93 350
e 95 383
e 95 786
e 95 837
e 95 710
e 95 112
e 97 991
e 97 827
e 97 795
e 97 960
e 97 564
e 99 895
e 99 955
e 99 986
e 99 210
e 99 562
e 99 831
e 100 161
e 100 185
e 100 992
e 100 878
e 100 536
e 100 505
e 101 891
e 101 965
e 101 931
e 101 652
e 101 361
e 102 785
e 102 152
e 102 134
e 104 189
e 104 240
e 104 862
e 104 912
e 105 421
e 105 224
e 105 501
e 105 445
e 105 539
e 106 704
e 106 984
e 106 635
e 106 880
e 108 120
e 108 387
e 108 982
e 111 679
e 111 443
e 111 877
e 111 273
e 112 320
e 112 117
e 112 948
e 113 568
e 113 719
e 113 506
e 113 855
e 114 464
e 114 833
e 114 947
e 116 679
e 116 528
e 116 514
e 116 761
e 116 419
e 116 482
e 116 215
e 117 690
e 117 183
e 118 739
e 118 190
e 118 705
e 118 865
e 119 381
e 119 824
e 119 127
e 119 831
e 120 667
e 120 402
e 120 323
e 120 701
e 120 790
e 120 424
e 120 965
e 121 236
e 121 254
e 122 610
e 122 973
e 125 164
e 125 423
e 125 602
e 126 403
e 126 836
e 126 217
e 126 233
e 126 178
e 126 648
e 127 420
e 127 488
e 127 150
e 130 193
e 130 332
e 130 455
e 130 389
e 130 240
e 130 992
e 131 497
e 131 688
e 131 636
e 131 866
e 132 324
e 132 296
e 132 478
e 133 459
e 133 911
e 133 608
e 133 598
e 134 385
e 134 215
e 134 736
e 134 935
e 134 182
e 136 804
e 136 590
e 136 372
e 136 235
e 136 992
e 136 546
e 137 363
e 137 379
e 139 143
e 139 477
e 139 654
e 142 364
e 142 964
e 142 353
e 143 515
e 143 999
e 144 628
e 144 912
e 144 701
e 145 912
e 145 823
e 145 761
e 145 697
e 145 560
e 146 312
e 146 549
e 146 849
e 147 726
e 147 655
e 147 271
e 147 519
e 147 477
e 147 845
e 148 614
e 148 822
e 148 534
e 150 824
e 150 332
e 150 225
e 150 507
e 150 382
e 152 242
e 152 713
e 152 575
e 152 363
e 152 599
e 155 626
e 155 887
e 155 710
e 156 700
e 156 868
e 156 359
e 157 899
e 157 481
e 157 457
e 159 312
e 159 397
e 160 674
e 160 551
e 160 371
e 160 641
e 160 942
e 161 431
e 161 441
e 161 650
e 161 231
e 162 835
e 162 657
e 162 914
e 162 731
e 162 926
e 162 644
e 163 564
e 163 306
e 163 644
e 163 335
e 163 578
e 163 898
e 164 838
e 164 384
e 164 757
e 164 424
e 164 785
e 165 304
e 165 269
e 165 991
e 165 771
e 165 652
e 166 726
e 166 361
e 166 235
e 167 237
e 167 540
e 167 334
e 168 458
e 168 788
e 168 319
e 169 891
e 169 598
e 169 196
e 170 866
e 170 599
e 170 751
e 171 297
e 171 563
e 171 855
e 176 646
e 176 461
e 176 444
e 176 512
e 176 894
e 176 914
e 178 759
e 178 274
e 178 750
e 178 226
e 179 930
e 179 617
e 179 228
e 179 885
e 180 225
e 180 221
e 180 335
e 180 223
e 180 781
e 180 404
e 180 987
e 180 606
e 180 340
e 181 543
e 181 280
e 181 301
e 181 821
e 181 565
e 182 783
e 182 708
e 182 320
e 182 878
e 183 292
e 183 481
e 183 967
e 183 891
e 183 798
e 183 697
e 183 681
e 184 324
e 184 854
e 185 724
e 185 890
e 186 443
e 186 913
e 186 492
e 186 301
e 187 458
e 187 539
e 187 471
e 187 393
e 187 948
e 187 865
e 187 459
e 189 254
e 189 997
e 189 823
e 189 845
e 190 912
e 190 267
e 190 655
e 190 852
e 190 233
e 191 934
e 191 579
e 192 650
e 192 214
e 192 671
e 193 841
e 193 428
e 193 664
e 194 835
e 195 296
e 195 542
e 195 878
e 195 850
e 196 691
e 196 845
e 196 957
e 197 837
e 197 373
e 197 846
e 197 460
e 197 628
e 197 984
e 200 648
e 200 837
e 200 968
e 200 407
e 200 541
e 200 316
e 201 912
e 201 254
e 201 893
e 201 793
e 202 887
e 202 584
e 206 748
e 206 824
e 206 636
e 207 875
e 207 852
e 207 818
e 207 348
e 207 947
e 207 999
e 208 558
e 208 771
e 208 433
e 208 589
e 209 952
e 209 291
e 209 272
e 210 667
e 210 554
e 210 931
e 210 850
e 212 250
e 212 794
e 212 584
e 213 453
e 213 611
e 213 573
e 214 751
e 214 803
e 214 458
e 214 852
e 214 798
e 215 863
e 215 660
e 215 230
e 215 537
e 215 594
e 215 461
e 216 589
e 216 236
e 217 823
e 217 981
e 217 522
e 219 736
e 219 767
e 219 996
e 219 957
e 221 742
e 221 457
e 221 441
e 221 692
e 221 308
e 223 805
e 224 684
e 224 893
e 224 337
e 224 923
e 224 821
e 225 489
e 225 269
e 225 348
e 225 787
e 226 754
e 226 614
e 227 388
e 227 725
e 227 273
e 227 575
e 227 359
e 228 611
e 228 643
e 228 779
e 228 249
e 228 820
e 229 738
e 229 757
e 229 510
e 229 509
e 229 383
e 229 883
e 230 754
e 230 672
e 230 510
e 231 688
e 233 673
e 233 339
e 233 598
e 233 435
e 233 842
e 233 951
e 233 756
e 234 739
e 234 834
e 234 923
e 234 549
e 234 415
e 234 823
e 235 433
e 235 429
e 236 833
e 236 946
e 236 896
e 237 493
e 237 952
e 237 747
e 240 752
e 240 534
e 241 910
e 241 332
e 241 382
e 241 367
e 241 657
e 242 655
e 242 395
e 243 263
e 243 300
e 243 567
e 243 509
e 244 514
e 244 367
e 244 934
e 244 659
e 244 304
e 245 384
e 245 316
e 245 748
e 246 649
e 246 327
e 246 745
e 248 908
e 248 470
e 248 561
e 249 872
e 249 671
e 249 498
e 249 801
e 250 897
e 250 477
e 250 469
e 253 389
e 253 470
e 253 866
e 254 590
e 255 385
e 255 515
e 255 884
e 255 774
e 256 774
e 256 429
e 257 951
e 257 801
e 257 404
e 257 347
e 257 814
e 257 354
e 257 729
e 258 795
e 258 535
e 258 541
e 258 350
e 259 712
e 259 587
e 259 610
e 261 815
e 261 420
e 261 745
e 261 689
e 262 794
e 262 561
e 262 444
e 262 452
e 263 299
e 263 678
e 263 629
e 263 601
e 263 311
e 264 762
e 264 628
e 264 585
e 264 810
e 266 588
e 266 413
e 266 892
e 266 626
e 266 440
e 267 881
e 267 914
e 267 453
e 267 910
e 267 432
e 267 354
e 269 824
e 269 866
e 269 553
e 269 478
e 270 727
e 270 785
e 270 749
e 271 702
e 271 569
e 271 780
e 271 729
e 272 985
e 272 297
e 272 594
e 272 651
e 272 324
e 273 553
e 273 863
e 273 489
e 274 539
e 274 558
e 274 733
e 274 429
e 276 815
e 276 865
e 276 903
e 276 419
e 277 629
e 277 845
e 277 784
e 278 815
e 278 814
e 278 761
e 278 490
e 278 569
e 279 337
e 279 749
e 279 565
e 280 914
e 280 564
e 281 934
e 281 776
e 281 717
e 281 321
e 282 562
e 282 952
e 282 383
e 282 973
e 282 951
e 283 809
e 283 296
e 283 586
e 283 957
e 283 632
e 287 314
e 287 915
e 287 529
e 290 747
e 290 447
e 290 811
e 291 802
e 291 474
e 292 756
e 292 497
e 292 484
e 292 444
e 292 417
e 296 304
e 296 956
e 297 601
e 297 850
e 297 742
e 297 998
e 299 447
e 299 748
e 299 805
e 299 629
e 299 930
e 300 503
e 300 524
e 301 526
e 303 573
e 303 351
e 303 898
e 304 922
e 304 879
e 304 373
e 306 883
e 306 688
e 306 721
e 306 730
e 306 428
e 306 751
e 306 457
e 306 740
e 308 455
e 308 615
e 308 550
e 308 318
e 310 912
e 310 902
e 310 896
e 310 432
e 310 498
e 311 313
e 311 963
e 311 872
e 312 768
e 312 989
e 312 491
e 312 419
e 312 951
e 313 586
e 313 653
e 313 384
e 313 701
e 313 517
e 314 449
e 314 992
e 314 359
e 314 757
e 316 782
e 316 774
e 316 989
e 316 482
e 316 842
e 316 360
e 316 665
e 317 710
e 317 764
e 317 341
e 318 870
e 318 833
e 319 996
e 319 333
e 320 612
e 320 893
e 320 540
e 320 358
e 320 658
e 321 829
e 321 559
e 321 660
e 321 707
e 321 419
e 321 549
e 321 441
e 323 391
e 323 580
e 323 513
e 323 411
e 324 753
e 324 654
e 326 696
e 326 701
e 326 448
e 327 372
e 327 822
e 328 619
e 328 674
e 329 422
e 329 813
e 329 713
e 330 561
e 330 519
e 330 405
e 330 507
e 330 497
e 331 440
e 331 514
e 331 618
e 331 394
e 332 433
e 333 404
e 333 601
e 333 754
e 333 481
e 333 450
e 334 536
e 334 543
e 335 562
e 335 415
e 337 450
e 337 441
e 339 526
e 339 464
e 339 696
e 340 519
e 340 879
e 340 642
e 341 641
e 341 679
e 341 561
e 341 851
e 343 820
e 343 509
e 343 508
e 346 664
e 346 420
e 346 559
e 346 739
e 347 472
e 347 935
e 347 992
e 347 589
e 348 657
e 349 769
e 349 897
e 349 874
e 350 932
e 350 506
e 350 351
e 350 775
e 351 688
e 351 455
e 353 596
e 353 917
e 353 838
e 354 756
e 354 532
e 354 571
e 354 391
e 354 878
e 357 423
e 357 692
e 357 588
e 358 871
e 358 643
e 358 829
e 360 896
e 360 875
e 361 914
e 361 814
e 361 397
e 361 992
e 361 950
e 361 382
e 362 409
e 362 961
e 362 973
e 363 753
e 364 799
e 364 677
e 364 734
e 365 569
e 365 897
e 365 960
e 366 432
e 366 829
e 366 659
e 366 734
e 367 840
e 367 837
e 368 637
e 368 783
e 370 796
e 370 771
e 370 835
e 370 938
e 370 553
e 370 572
e 371 508
e 371 488
e 372 887
e 372 487
e 372 755
e 372 656
e 373 564
e 373 781
e 373 899
e 373 713
e 373 567
e 374 431
e 374 853
e 374 419
e 375 379
e 375 913
e 375 950
e 376 528
e 376 935
e 376 574
e 376 716
e 379 716
e 379 815
e 380 381
e 380 534
e 380 701
e 380 642
e 381 455
e 382 878
e 382 992
e 382 770
e 382 726
e 382 591
e 382 525
e 383 507
e 384 417
e 384 711
e 385 516
e 385 652
e 385 657
e 385 776
e 385 943
e 387 807
e 387 518
e 388 797
e 388 919
e 388 481
e 388 415
e 388 678
e 389 601
e 391 781
e 393 745
e 393 706
e 393 449
e 393 592
e 394 849
e 394 627
e 395 591
e 395 485
e 395 549
e 396 750
e 396 835
e 396 451
e 396 702
e 397 762
e 397 880
e 402 866
e 402 676
e 402 502
e 402 578
e 403 784
e 403 730
e 403 849
e 404 458
e 404 606
e 404 979
e 405 673
e 405 526
e 405 971
e 405 955
e 406 797
e 406 853
e 406 787
e 406 648
e 407 487
e 409 489
e 409 657
e 409 885
e 409 908
e 411 833
e 411 421
e 411 824
e 413 644
e 413 501
e 413 433
e 414 490
e 414 423
e 419 867
e 419 805
e 419 892
e 419 584
e 419 756
e 419 525
e 420 615
e 420 700
e 420 870
e 421 643
e 421 699
e 422 838
e 422 725
e 423 894
e 423 552
e 423 551
e 423 480
e 424 602
e 424 782
e 424 554
e 424 885
e 428 455
e 428 700
e 428 903
e 429 619
e 429 458
e 429 432
e 430 707
e 430 552
e 430 588
e 430 666
e 430 618
e 431 996
e 431 717
e 432 875
e 432 596
e 432 450
e 433 492
e 433 497
e 434 853
e 434 683
e 434 810
e 435 657
e 435 731
e 436 898
e 436 635
e 436 774
e 436 508
e 440 925
e 440 815
e 441 984
e 441 673
e 441 877
e 443 766
e 444 877
e 444 684
e 444 944
e 445 804
e 445 491
e 445 892
e 447 681
e 447 457
e 448 796
e 449 950
e 449 636
e 449 716
e 450 593
e 450 714
e 451 655
e 451 623
e 452 551
e 452 892
e 453 701
e 453 841
e 453 476
e 455 802
e 455 679
e 456 604
e 456 908
e 456 902
e 457 689
e 457 475
e 457 855
e 458 721
e 458 963
e 458 829
e 459 502
e 460 495
e 460 948
e 461 677
e 462 850
e 462 477
e 462 483
e 464 877
e 464 873
e 468 519
e 468 957
e 468 998
e 469 690
e 469 942
e 469 710
e 470 532
e 470 881
e 470 528
e 470 733
e 471 493
e 471 580
e 471 742
e 471 517
e 471 726
e 472 623
e 472 804
e 473 661
e 473 803
e 473 956
e 473 591
e 473 584
e 473 741
e 473 923
e 474 797
e 475 699
e 475 878
e 475 753
e 476 702
e 476 884
e 477 689
e 477 797
e 477 785
e 477 883
e 478 516
e 480 846
e 480 602
e 480 696
e 481 966
e 481 516
e 481 599
e 482 539
e 482 764
e 483 786
e 483 563
e 484 677
e 484 862
e 485 787
e 485 643
e 485 678
e 486 713
e 486 608
e 487 809
e 487 731
e 487 705
e 487 513
e 487 663
e 487 823
e 488 934
e 488 773
e 489 507
e 489 566
e 490 899
e 490 683
e 490 663
e 490 863
e 491 759
e 491 965
e 492 932
e 492 528
e 493 561
e 493 589
e 493 879
e 495 807
e 495 545
e 495 775
e 495 506
e 497 499
e 497 811
e 498 787
e 499 804
e 499 730
e 499 883
e 500 665
e 500 956
e 500 769
e 500 712
e 501 526
e 501 850
e 502 523
e 503 773
e 505 837
e 505 627
e 505 818
e 507 665
e 507 535
e 507 870
e 508 563
e 509 822
e 510 587
e 510 523
e 512 543
e 512 784
e 513 721
e 513 604
e 514 790
e 514 809
e 517 955
e 517 879
e 518 886
e 518 558
e 518 675
e 518 974
e 519 963
e 522 998
e 522 805
e 522 768
e 522 677
e 523 888
e 523 908
e 523 744
e 523 926
e 523 626
e 524 681
e 524 829
e 524 831
e 525 552
e 525 919
e 526 658
e 526 845
e 528 691
e 528 887
e 528 607
e 529 710
e 529 560
e 532 648
e 532 865
e 533 979
e 533 829
e 533 649
e 534 702
e 534 663
e 535 947
e 535 853
e 536 899
e 536 743
e 536 674
e 536 642
e 537 793
e 537 615
e 537 773
e 537 836
e 539 637
e 539 840
e 539 740
e 540 599
e 540 946
e 541 983
e 542 622
e 542 665
e 543 562
e 545 611
e 545 676
e 545 803
e 546 888
e 546 576
e 546 853
e 549 885
e 549 715
e 550 607
e 550 887
e 550 977
e 550 655
e 551 838
e 551 675
e 552 911
e 552 558
e 552 690
e 552 862
e 552 704
e 552 658
e 553 981
e 554 862
e 554 619
e 554 757
e 554 739
e 554 766
e 558 734
e 558 901
e 558 715
e 559 979
e 559 653
e 560 752
e 560 615
e 560 562
e 561 666
e 561 791
e 561 725
e 562 673
e 563 898
e 563 742
e 564 697
e 564 870
e 565 746
e 565 845
e 566 922
e 566 767
e 567 745
e 567 636
e 568 756
e 568 977
e 569 912
e 569 886
e 571 926
e 571 657
e 571 846
e 571 871
e 572 749
e 572 942
e 572 706
e 572 872
e 573 692
e 574 878
e 574 867
e 574 968
e 575 782
e 575 757
e 576 757
e 579 674
e 580 817
e 583 836
e 583 637
e 584 819
e 584 757
e 585 878
e 585 612
e 586 643
e 586 617
e 586 935
e 587 866
e 587 749
e 589 660
e 590 661
e 590 814
e 590 887
e 592 977
e 592 984
e 593 955
e 593 673
e 596 735
e 596 671
e 596 728
e 598 672
e 599 614
e 604 776
e 606 700
e 606 965
e 606 838
e 607 898
e 607 705
e 608 960
e 610 777
e 610 650
e 610 768
e 611 881
e 612 917
e 615 713
e 617 813
e 617 629
e 617 925
e 617 851
e 618 707
e 619 770
e 619 921
e 619 628
e 619 632
e 619 977
e 620 663
e 620 795
e 622 831
e 623 855
e 623 984
e 623 821
e 626 964
e 627 831
e 628 658
e 629 736
e 629 822
e 632 841
e 635 745
e 635 827
e 635 783
e 635 738
e 635 717
e 635 992
e 636 830
e 636 761
e 636 941
e 636 654
e 637 796
e 637 915
e 637 807
e 641 805
e 642 686
e 642 852
e 642 864
e 643 799
e 646 733
e 648 879
e 648 788
e 648 804
e 649 942
e 651 971
e 651 686
e 651 740
e 652 992
e 653 893
e 653 769
e 654 755
e 654 745
e 655 674
e 657 823
e 657 688
e 657 675
e 657 943
e 657 921
e 657 771
e 658 890
e 658 742
e 658 911
e 659 922
e 660 827
e 660 974
e 660 751
e 661 923
e 663 743
e 665 852
e 666 984
e 666 741
e 667 944
e 667 837
e 671 891
e 672 870
e 675 813
e 676 773
e 676 678
e 676 967
e 677 819
e 677 945
e 678 901
e 678 880
e 679 854
e 679 683
e 681 997
e 681 790
e 683 716
e 683 713
e 684 950
e 686 964
e 687 972
e 688 707
e 689 805
e 689 915
e 691 728
e 692 971
e 692 791
e 699 824
e 700 998
e 701 873
e 702 751
e 706 873
e 706 838
e 707 997
e 708 966
e 708 992
e 708 973
e 708 967
e 710 864
e 711 965
e 711 836
e 712 881
e 713 787
e 714 941
e 715 846
e 716 811
e 716 944
e 719 895
e 721 941
e 722 943
e 722 837
e 724 756
e 724 830
e 725 982
e 726 868
e 727 910
e 728 780
e 728 935
e 728 890
e 728 731
e 729 897
e 729 770
e 729 736
e 730 762
e 731 921
e 733 744
e 733 759
e 735 934
e 735 896
e 736 771
e 736 885
e 738 908
e 738 874
e 739 782
e 740 867
e 741 877
e 741 831
e 742 757
e 742 963
e 743 938
e 744 975
e 744 983
e 746 797
e 746 926
e 747 766
e 747 967
e 749 891
e 749 888
e 750 894
e 751 838
e 752 897
e 752 823
e 753 987
e 754 879
e 759 809
e 759 899
e 762 805
e 766 805
e 766 891
e 766 798
e 769 987
e 769 979
e 771 854
e 771 871
e 775 974
e 776 964
e 777 821
e 777 911
e 777 981
e 779 819
e 779 795
e 786 952
e 790 979
e 791 797
e 793 982
e 794 897
e 794 967
e 795 968
e 796 968
e 797 868
e 799 910
e 801 999
e 803 870
e 804 868
e 809 996
e 810 938
e 810 831
e 811 930
e 813 938
e 813 985
e 813 977
e 815 837
e 815 919
e 815 853
e 817 926
e 819 975
e 819 931
e 819 930
e 820 827
e 829 986
e 829 901
e 830 956
e 830 957
e 832 868
e 833 895
e 833 903
e 834 977
e 834 878
e 836 986
e 837 973
e 840 852
e 842 982
e 845 888
e 845 963
e 849 963
e 851 986
e 853 932
e 863 865
e 865 989
e 868 985
e 873 884
e 874 884
e 875 971
e 877 932
e 881 930
e 881 952
e 883 998
e 887 925
e 892 912
e 892 965
e 894 956
e 895 983
e 901 985
e 902 982
e 913 946
e 917 951
e 917 930
e 922 975
e 925 938
e 926 966
e 935 972
e 946 996
e 952 967
e 957 982
e 961 973
e 971 998
e 972 996
e 974 991
